198
0 34 106 136 194 163 47 102 143 173 
123 97 149 27 177 125 170 2 115 108 
82 126 18 4 178 66 88 68 75 128 
90 33 79 151 168 31 185 176 183 25 
124 141 23 174 187 169 19 196 188 158 
181 64 172 179 191 92 57 104 16 144 
186 111 81 116 114 190 132 121 142 195 
38 171 73 17 78 35 43 98 56 53 
61 159 44 24 85 160 36 54 117 109 
11 7 62 135 41 84 166 67 59 120 
37 77 119 134 145 189 72 95 10 30 
8 147 113 26 9 1 184 32 157 86 
193 127 175 21 131 49 55 93 99 80 
83 15 94 100 5 20 39 101 96 29 
6 197 60 153 22 180 107 74 118 155 
129 154 48 148 103 164 70 162 50 46 
130 146 150 76 89 167 105 122 51 91 
52 69 45 152 14 182 112 192 110 13 
40 165 42 139 3 87 63 156 161 140 
138 58 71 12 133 28 137 65 
